c Result of efficient AIG-to-CNF conversion using package CNF
p cnf 575 2120
-2 3 286 0
-2 -3 -286 0
2 -3 286 0
2 3 -286 0
-3 4 260 0
-3 -4 -260 0
3 -4 260 0
3 4 -260 0
-4 5 81 0
-4 -5 -81 0
4 -5 81 0
4 5 -81 0
-5 -6 -69 0
-5 6 69 0
5 6 -69 0
5 -6 69 0
-6 -7 -55 0
-6 7 55 0
6 7 -55 0
6 -7 55 0
-7 8 41 0
-7 -8 -41 0
7 -8 41 0
7 8 -41 0
-8 9 38 0
-8 -9 -38 0
8 -9 38 0
8 9 -38 0
-9 10 26 0
-9 -10 -26 0
9 -10 26 0
9 10 -26 0
-10 11 21 0
-10 -11 -21 0
10 -11 21 0
10 11 -21 0
-11 12 17 0
-11 -12 -17 0
11 -12 17 0
11 12 -17 0
-12 -13 -16 0
-12 13 16 0
12 13 -16 0
12 -13 16 0
-13 -14 -15 0
-13 14 15 0
13 14 -15 0
13 -14 15 0
14 -531 -535 0
-14 531 0
-14 535 0
15 -544 -573 0
-15 544 0
-15 573 0
16 -537 -542 0
-16 537 0
-16 542 0
-17 18 20 0
-17 19 20 0
-17 18 19 0
17 -18 -19 0
17 -19 -20 0
17 -18 -20 0
18 -531 -573 0
-18 531 0
-18 573 0
19 -542 -544 0
-19 542 0
-19 544 0
20 -537 -541 0
-20 537 0
-20 541 0
-21 -22 -25 0
-21 22 25 0
21 22 -25 0
21 -22 25 0
-22 -23 -24 0
-22 23 24 0
22 23 -24 0
22 -23 24 0
23 -541 -543 0
-23 541 0
-23 543 0
24 -540 -548 0
-24 540 0
-24 548 0
25 -539 -549 0
-25 539 0
-25 549 0
-26 27 29 0
-26 29 33 0
-26 27 33 0
26 -27 -33 0
26 -29 -33 0
26 -27 -29 0
-27 20 28 0
-27 -20 -28 0
27 -20 28 0
27 20 -28 0
-28 -18 -19 0
-28 18 19 0
28 18 -19 0
28 -18 19 0
-29 30 32 0
-29 31 32 0
-29 30 31 0
29 -30 -31 0
29 -31 -32 0
29 -30 -32 0
30 -531 -542 0
-30 531 0
-30 542 0
31 -541 -544 0
-31 541 0
-31 544 0
32 -537 -548 0
-32 537 0
-32 548 0
-33 -34 -37 0
-33 34 37 0
33 34 -37 0
33 -34 37 0
-34 -35 -36 0
-34 35 36 0
34 35 -36 0
34 -35 36 0
35 -543 -548 0
-35 543 0
-35 548 0
36 -540 -549 0
-36 540 0
-36 549 0
37 -529 -539 0
-37 529 0
-37 539 0
-38 -39 -40 0
-38 39 40 0
38 39 -40 0
38 -39 40 0
-39 35 37 0
-39 36 37 0
-39 35 36 0
39 -35 -36 0
39 -36 -37 0
39 -35 -37 0
40 -529 -545 0
-40 529 0
-40 545 0
-41 42 44 0
-41 44 54 0
-41 42 54 0
41 -44 -54 0
41 -42 -44 0
41 -42 -54 0
-42 33 43 0
-42 -33 -43 0
42 -33 43 0
42 33 -43 0
-43 27 29 0
-43 -27 -29 0
43 -27 29 0
43 27 -29 0
-44 45 47 0
-44 47 51 0
-44 45 51 0
44 -45 -51 0
44 -47 -51 0
44 -45 -47 0
-45 32 46 0
-45 -32 -46 0
45 -32 46 0
45 32 -46 0
-46 -30 -31 0
-46 30 31 0
46 30 -31 0
46 -30 31 0
-47 48 50 0
-47 49 50 0
-47 48 49 0
47 -48 -49 0
47 -49 -50 0
47 -48 -50 0
48 -531 -541 0
-48 531 0
-48 541 0
49 -544 -548 0
-49 544 0
-49 548 0
50 -537 -549 0
-50 537 0
-50 549 0
-51 -52 -53 0
-51 52 53 0
51 52 -53 0
51 -52 53 0
52 -543 -549 0
-52 543 0
-52 549 0
53 -529 -540 0
-53 529 0
-53 540 0
54 -529 -540 -543 -549 0
-54 549 0
-54 529 0
-54 543 0
-54 540 0
55 -56 -58 0
-55 56 0
-55 58 0
-56 54 57 0
-56 -54 -57 0
56 -54 57 0
56 54 -57 0
-57 42 44 0
-57 -42 -44 0
57 -42 44 0
57 42 -44 0
58 -59 -61 0
-58 59 0
-58 61 0
-59 51 60 0
-59 -51 -60 0
59 -51 60 0
59 51 -60 0
-60 45 47 0
-60 -45 -47 0
60 -45 47 0
60 45 -47 0
-61 62 64 0
-61 64 68 0
-61 62 68 0
61 -64 -68 0
61 -62 -64 0
61 -62 -68 0
-62 50 63 0
-62 -50 -63 0
62 -50 63 0
62 50 -63 0
-63 -48 -49 0
-63 48 49 0
63 48 -49 0
63 -48 49 0
-64 65 67 0
-64 66 67 0
-64 65 66 0
64 -65 -66 0
64 -66 -67 0
64 -65 -67 0
65 -531 -548 0
-65 531 0
-65 548 0
66 -544 -549 0
-66 544 0
-66 549 0
67 -529 -537 0
-67 529 0
-67 537 0
68 -529 -543 0
-68 529 0
-68 543 0
69 -70 -71 0
-69 70 0
-69 71 0
-70 -56 -58 0
-70 56 58 0
70 56 -58 0
70 -56 58 0
71 -72 -73 0
-71 72 0
-71 73 0
-72 59 61 0
-72 -59 -61 0
72 -59 61 0
72 59 -61 0
73 -74 -76 0
-73 74 0
-73 76 0
-74 68 75 0
-74 -68 -75 0
74 -68 75 0
74 68 -75 0
-75 62 64 0
-75 -62 -64 0
75 -62 64 0
75 62 -64 0
76 -77 -79 0
-76 77 0
-76 79 0
-77 67 78 0
-77 -67 -78 0
77 -67 78 0
77 67 -78 0
-78 -65 -66 0
-78 65 66 0
78 65 -66 0
78 -65 66 0
79 -529 -544 -80 0
-79 529 0
-79 544 0
-79 80 0
80 -531 -549 0
-80 531 0
-80 549 0
-81 82 235 0
-81 -82 -235 0
81 -82 235 0
81 82 -235 0
-82 83 159 0
-82 -83 -159 0
82 -83 159 0
82 83 -159 0
-83 -84 -147 0
-83 84 147 0
83 84 -147 0
83 -84 147 0
-84 -85 -133 0
-84 85 133 0
84 85 -133 0
84 -85 133 0
-85 86 119 0
-85 -86 -119 0
85 -86 119 0
85 86 -119 0
-86 87 116 0
-86 -87 -116 0
86 -87 116 0
86 87 -116 0
-87 88 104 0
-87 -88 -104 0
87 -88 104 0
87 88 -104 0
-88 89 99 0
-88 -89 -99 0
88 -89 99 0
88 89 -99 0
-89 90 95 0
-89 -90 -95 0
89 -90 95 0
89 90 -95 0
-90 -91 -94 0
-90 91 94 0
90 91 -94 0
90 -91 94 0
-91 -92 -93 0
-91 92 93 0
91 92 -93 0
91 -92 93 0
92 -557 -571 0
-92 557 0
-92 571 0
93 -550 -558 0
-93 550 0
-93 558 0
94 -554 -559 0
-94 554 0
-94 559 0
-95 96 98 0
-95 97 98 0
-95 96 97 0
95 -96 -97 0
95 -97 -98 0
95 -96 -98 0
96 -557 -558 0
-96 557 0
-96 558 0
97 -550 -554 0
-97 550 0
-97 554 0
98 -559 -560 0
-98 559 0
-98 560 0
-99 -100 -103 0
-99 100 103 0
99 100 -103 0
99 -100 103 0
-100 -101 -102 0
-100 101 102 0
100 101 -102 0
100 -101 102 0
101 -560 -561 0
-101 560 0
-101 561 0
102 -552 -562 0
-102 552 0
-102 562 0
103 -563 -564 0
-103 563 0
-103 564 0
-104 105 107 0
-104 107 111 0
-104 105 111 0
104 -105 -111 0
104 -107 -111 0
104 -105 -107 0
-105 98 106 0
-105 -98 -106 0
105 -98 106 0
105 98 -106 0
-106 -96 -97 0
-106 96 97 0
106 96 -97 0
106 -96 97 0
-107 108 110 0
-107 109 110 0
-107 108 109 0
107 -108 -109 0
107 -109 -110 0
107 -108 -110 0
108 -554 -557 0
-108 554 0
-108 557 0
109 -550 -560 0
-109 550 0
-109 560 0
110 -552 -559 0
-110 552 0
-110 559 0
-111 -112 -115 0
-111 112 115 0
111 112 -115 0
111 -112 115 0
-112 -113 -114 0
-112 113 114 0
112 113 -114 0
112 -113 114 0
113 -552 -561 0
-113 552 0
-113 561 0
114 -562 -563 0
-114 562 0
-114 563 0
115 -564 -565 0
-115 564 0
-115 565 0
-116 -117 -118 0
-116 117 118 0
116 117 -118 0
116 -117 118 0
-117 113 115 0
-117 114 115 0
-117 113 114 0
117 -113 -114 0
117 -114 -115 0
117 -113 -115 0
118 -565 -566 0
-118 565 0
-118 566 0
-119 120 122 0
-119 122 132 0
-119 120 132 0
119 -122 -132 0
119 -120 -122 0
119 -120 -132 0
-120 111 121 0
-120 -111 -121 0
120 -111 121 0
120 111 -121 0
-121 105 107 0
-121 -105 -107 0
121 -105 107 0
121 105 -107 0
-122 123 125 0
-122 125 129 0
-122 123 129 0
122 -123 -129 0
122 -125 -129 0
122 -123 -125 0
-123 110 124 0
-123 -110 -124 0
123 -110 124 0
123 110 -124 0
-124 -108 -109 0
-124 108 109 0
124 108 -109 0
124 -108 109 0
-125 126 128 0
-125 127 128 0
-125 126 127 0
125 -126 -127 0
125 -127 -128 0
125 -126 -128 0
126 -557 -560 0
-126 557 0
-126 560 0
127 -550 -552 0
-127 550 0
-127 552 0
128 -559 -563 0
-128 559 0
-128 563 0
-129 -130 -131 0
-129 130 131 0
129 130 -131 0
129 -130 131 0
130 -561 -563 0
-130 561 0
-130 563 0
131 -562 -565 0
-131 562 0
-131 565 0
132 -561 -562 -563 -565 0
-132 565 0
-132 561 0
-132 563 0
-132 562 0
133 -134 -136 0
-133 134 0
-133 136 0
-134 132 135 0
-134 -132 -135 0
134 -132 135 0
134 132 -135 0
-135 120 122 0
-135 -120 -122 0
135 -120 122 0
135 120 -122 0
136 -137 -139 0
-136 137 0
-136 139 0
-137 129 138 0
-137 -129 -138 0
137 -129 138 0
137 129 -138 0
-138 123 125 0
-138 -123 -125 0
138 -123 125 0
138 123 -125 0
-139 140 142 0
-139 142 146 0
-139 140 146 0
139 -142 -146 0
139 -140 -142 0
139 -140 -146 0
-140 128 141 0
-140 -128 -141 0
140 -128 141 0
140 128 -141 0
-141 -126 -127 0
-141 126 127 0
141 126 -127 0
141 -126 127 0
-142 143 145 0
-142 144 145 0
-142 143 144 0
142 -143 -144 0
142 -144 -145 0
142 -143 -145 0
143 -552 -557 0
-143 552 0
-143 557 0
144 -550 -563 0
-144 550 0
-144 563 0
145 -559 -565 0
-145 559 0
-145 565 0
146 -561 -565 0
-146 561 0
-146 565 0
147 -148 -149 0
-147 148 0
-147 149 0
-148 -134 -136 0
-148 134 136 0
148 134 -136 0
148 -134 136 0
149 -150 -151 0
-149 150 0
-149 151 0
-150 137 139 0
-150 -137 -139 0
150 -137 139 0
150 137 -139 0
151 -152 -154 0
-151 152 0
-151 154 0
-152 146 153 0
-152 -146 -153 0
152 -146 153 0
152 146 -153 0
-153 140 142 0
-153 -140 -142 0
153 -140 142 0
153 140 -142 0
154 -155 -157 0
-154 155 0
-154 157 0
-155 145 156 0
-155 -145 -156 0
155 -145 156 0
155 145 -156 0
-156 -143 -144 0
-156 143 144 0
156 143 -144 0
156 -143 144 0
157 -550 -565 -158 0
-157 550 0
-157 565 0
-157 158 0
158 -557 -563 0
-158 557 0
-158 563 0
-159 -160 -223 0
-159 160 223 0
159 160 -223 0
159 -160 223 0
-160 -161 -209 0
-160 161 209 0
160 161 -209 0
160 -161 209 0
-161 162 195 0
-161 -162 -195 0
161 -162 195 0
161 162 -195 0
-162 163 192 0
-162 -163 -192 0
162 -163 192 0
162 163 -192 0
-163 164 180 0
-163 -164 -180 0
163 -164 180 0
163 164 -180 0
-164 165 175 0
-164 -165 -175 0
164 -165 175 0
164 165 -175 0
-165 166 171 0
-165 -166 -171 0
165 -166 171 0
165 166 -171 0
-166 -167 -170 0
-166 167 170 0
166 167 -170 0
166 -167 170 0
-167 -168 -169 0
-167 168 169 0
167 168 -169 0
167 -168 169 0
168 -526 -527 0
-168 526 0
-168 527 0
169 -525 -551 0
-169 525 0
-169 551 0
170 -523 -524 0
-170 523 0
-170 524 0
-171 172 174 0
-171 173 174 0
-171 172 173 0
171 -172 -173 0
171 -173 -174 0
171 -172 -174 0
172 -526 -551 0
-172 526 0
-172 551 0
173 -524 -525 0
-173 524 0
-173 525 0
174 -522 -523 0
-174 522 0
-174 523 0
-175 -176 -179 0
-175 176 179 0
175 176 -179 0
175 -176 179 0
-176 -177 -178 0
-176 177 178 0
176 177 -178 0
176 -177 178 0
177 -521 -522 0
-177 521 0
-177 522 0
178 -520 -532 0
-178 520 0
-178 532 0
179 -519 -534 0
-179 519 0
-179 534 0
-180 181 183 0
-180 183 187 0
-180 181 187 0
180 -181 -187 0
180 -183 -187 0
180 -181 -183 0
-181 174 182 0
-181 -174 -182 0
181 -174 182 0
181 174 -182 0
-182 -172 -173 0
-182 172 173 0
182 172 -173 0
182 -172 173 0
-183 184 186 0
-183 185 186 0
-183 184 185 0
183 -184 -185 0
183 -185 -186 0
183 -184 -186 0
184 -524 -526 0
-184 524 0
-184 526 0
185 -522 -525 0
-185 522 0
-185 525 0
186 -520 -523 0
-186 520 0
-186 523 0
-187 -188 -191 0
-187 188 191 0
187 188 -191 0
187 -188 191 0
-188 -189 -190 0
-188 189 190 0
188 189 -190 0
188 -189 190 0
189 -520 -521 0
-189 520 0
-189 521 0
190 -532 -534 0
-190 532 0
-190 534 0
191 -518 -519 0
-191 518 0
-191 519 0
-192 -193 -194 0
-192 193 194 0
192 193 -194 0
192 -193 194 0
-193 189 191 0
-193 190 191 0
-193 189 190 0
193 -189 -190 0
193 -190 -191 0
193 -189 -191 0
194 -518 -568 0
-194 518 0
-194 568 0
-195 196 198 0
-195 198 208 0
-195 196 208 0
195 -198 -208 0
195 -196 -198 0
195 -196 -208 0
-196 187 197 0
-196 -187 -197 0
196 -187 197 0
196 187 -197 0
-197 181 183 0
-197 -181 -183 0
197 -181 183 0
197 181 -183 0
-198 199 201 0
-198 201 205 0
-198 199 205 0
198 -199 -205 0
198 -201 -205 0
198 -199 -201 0
-199 186 200 0
-199 -186 -200 0
199 -186 200 0
199 186 -200 0
-200 -184 -185 0
-200 184 185 0
200 184 -185 0
200 -184 185 0
-201 202 204 0
-201 203 204 0
-201 202 203 0
201 -202 -203 0
201 -203 -204 0
201 -202 -204 0
202 -522 -526 0
-202 522 0
-202 526 0
203 -520 -525 0
-203 520 0
-203 525 0
204 -523 -534 0
-204 523 0
-204 534 0
-205 -206 -207 0
-205 206 207 0
205 206 -207 0
205 -206 207 0
206 -521 -534 0
-206 521 0
-206 534 0
207 -518 -532 0
-207 518 0
-207 532 0
208 -518 -521 -532 -534 0
-208 534 0
-208 518 0
-208 532 0
-208 521 0
209 -210 -212 0
-209 210 0
-209 212 0
-210 208 211 0
-210 -208 -211 0
210 -208 211 0
210 208 -211 0
-211 196 198 0
-211 -196 -198 0
211 -196 198 0
211 196 -198 0
212 -213 -215 0
-212 213 0
-212 215 0
-213 205 214 0
-213 -205 -214 0
213 -205 214 0
213 205 -214 0
-214 199 201 0
-214 -199 -201 0
214 -199 201 0
214 199 -201 0
-215 216 218 0
-215 218 222 0
-215 216 222 0
215 -218 -222 0
215 -216 -218 0
215 -216 -222 0
-216 204 217 0
-216 -204 -217 0
216 -204 217 0
216 204 -217 0
-217 -202 -203 0
-217 202 203 0
217 202 -203 0
217 -202 203 0
-218 219 221 0
-218 220 221 0
-218 219 220 0
218 -219 -220 0
218 -220 -221 0
218 -219 -221 0
219 -520 -526 0
-219 520 0
-219 526 0
220 -525 -534 0
-220 525 0
-220 534 0
221 -518 -523 0
-221 518 0
-221 523 0
222 -518 -521 0
-222 518 0
-222 521 0
223 -224 -225 0
-223 224 0
-223 225 0
-224 -210 -212 0
-224 210 212 0
224 210 -212 0
224 -210 212 0
225 -226 -227 0
-225 226 0
-225 227 0
-226 213 215 0
-226 -213 -215 0
226 -213 215 0
226 213 -215 0
227 -228 -230 0
-227 228 0
-227 230 0
-228 222 229 0
-228 -222 -229 0
228 -222 229 0
228 222 -229 0
-229 216 218 0
-229 -216 -218 0
229 -216 218 0
229 216 -218 0
230 -231 -233 0
-230 231 0
-230 233 0
-231 221 232 0
-231 -221 -232 0
231 -221 232 0
231 221 -232 0
-232 -219 -220 0
-232 219 220 0
232 219 -220 0
232 -219 220 0
233 -518 -525 -234 0
-233 518 0
-233 525 0
-233 234 0
234 -526 -534 0
-234 526 0
-234 534 0
-235 236 239 0
-235 239 243 0
-235 239 244 0
235 -239 0
235 -236 -243 -244 0
-236 237 238 0
-236 -237 -238 0
236 -237 238 0
236 237 -238 0
-237 -148 -149 0
-237 148 149 0
237 148 -149 0
237 -148 149 0
-238 -224 -225 0
-238 224 225 0
238 224 -225 0
238 -224 225 0
-239 237 238 0
-239 238 240 0
-239 237 240 0
239 -238 -240 0
239 -237 -238 0
239 -237 -240 0
240 -241 -242 0
-240 241 0
-240 242 0
-241 -150 -151 0
-241 150 151 0
241 150 -151 0
241 -150 151 0
-242 -226 -227 0
-242 226 227 0
242 226 -227 0
242 -226 227 0
-243 241 242 0
-243 -241 -242 0
243 -241 242 0
243 241 -242 0
-244 245 248 0
-244 248 252 0
-244 248 253 0
244 -248 0
244 -245 -252 -253 0
-245 246 247 0
-245 -246 -247 0
245 -246 247 0
245 246 -247 0
-246 -152 -154 0
-246 152 154 0
246 152 -154 0
246 -152 154 0
-247 -228 -230 0
-247 228 230 0
247 228 -230 0
247 -228 230 0
-248 246 247 0
-248 247 249 0
-248 246 249 0
248 -247 -249 0
248 -246 -247 0
248 -246 -249 0
249 -250 -251 0
-249 250 0
-249 251 0
-250 -155 -157 0
-250 155 157 0
250 155 -157 0
250 -155 157 0
-251 -231 -233 0
-251 231 233 0
251 231 -233 0
251 -231 233 0
-252 250 251 0
-252 -250 -251 0
252 -250 251 0
252 250 -251 0
-253 254 256 0
-253 256 258 0
-253 254 258 0
-253 254 259 0
-253 256 259 0
253 -254 -256 0
253 -254 -258 -259 0
253 -256 -258 -259 0
-254 -158 -255 0
-254 158 255 0
254 158 -255 0
254 -158 255 0
255 -550 -565 0
-255 550 0
-255 565 0
-256 -234 -257 0
-256 234 257 0
256 234 -257 0
256 -234 257 0
257 -518 -525 0
-257 518 0
-257 525 0
258 -557 -565 0
-258 557 0
-258 565 0
259 -518 -526 0
-259 518 0
-259 526 0
-260 261 265 0
-260 265 268 0
-260 265 269 0
260 -265 0
260 -261 -268 -269 0
-261 262 263 0
-261 -262 -263 0
261 -262 263 0
261 262 -263 0
-262 -70 -71 0
-262 70 71 0
262 70 -71 0
262 -70 71 0
-263 236 264 0
-263 -236 -264 0
263 -236 264 0
263 236 -264 0
-264 240 243 0
-264 240 244 0
264 -240 0
264 -243 -244 0
-265 262 263 0
-265 263 267 0
-265 262 267 0
-265 263 266 0
-265 262 266 0
265 -262 -263 0
265 -262 -266 -267 0
265 -263 -266 -267 0
-266 -72 -73 0
-266 72 73 0
266 72 -73 0
266 -72 73 0
-267 243 244 0
-267 -243 -244 0
267 -243 244 0
267 243 -244 0
-268 266 267 0
-268 -266 -267 0
268 -266 267 0
268 266 -267 0
-269 270 271 276 0
-269 270 273 276 0
-269 271 273 276 0
269 -271 -273 0
269 -270 -271 0
269 -276 0
269 -270 -273 0
-270 -74 -76 0
-270 74 76 0
270 74 -76 0
270 -74 76 0
-271 245 272 0
-271 -245 -272 0
271 -245 272 0
271 245 -272 0
-272 249 252 0
-272 249 253 0
272 -249 0
272 -252 -253 0
273 -274 -275 0
-273 274 0
-273 275 0
-274 -77 -79 0
-274 77 79 0
274 77 -79 0
274 -77 79 0
-275 252 253 0
-275 -252 -253 0
275 -252 253 0
275 252 -253 0
276 -277 -274 275 -278 0
276 -277 274 -275 -278 0
-276 278 0
-276 274 275 0
-276 277 0
-276 -274 -275 0
-277 270 271 0
-277 -270 -271 0
277 -270 271 0
277 270 -271 0
-278 279 281 0
-278 281 284 0
-278 279 284 0
278 -281 -284 0
278 -279 -281 0
278 -279 -284 0
-279 -80 -280 0
-279 80 280 0
279 80 -280 0
279 -80 280 0
280 -529 -544 0
-280 529 0
-280 544 0
-281 -282 -283 0
-281 282 283 0
281 282 -283 0
281 -282 283 0
-282 254 256 0
-282 -254 -256 0
282 -254 256 0
282 254 -256 0
283 -258 -259 0
-283 258 0
-283 259 0
284 258 -259 -285 0
284 -258 259 -285 0
-284 285 0
-284 258 259 0
-284 -258 -259 0
285 -529 -531 0
-285 529 0
-285 531 0
-286 287 468 0
-286 -287 -468 0
286 -287 468 0
286 287 -468 0
-287 288 415 0
-287 -288 -415 0
287 -288 415 0
287 288 -415 0
-288 289 331 0
-288 331 373 0
-288 289 373 0
288 -289 -373 0
288 -331 -373 0
288 -289 -331 0
-289 290 311 0
-289 -290 -311 0
289 -290 311 0
289 290 -311 0
-290 291 300 0
-290 -291 -300 0
290 -291 300 0
290 291 -300 0
-291 292 294 0
-291 294 298 0
-291 292 298 0
291 -294 -298 0
291 -292 -294 0
291 -292 -298 0
-292 525 293 0
-292 -525 -293 0
292 -525 293 0
292 525 -293 0
-293 524 -526 0
-293 525 526 0
-293 522 526 0
293 -524 -526 0
293 -522 -525 526 0
-294 521 295 0
-294 -521 -295 0
294 -521 295 0
294 521 -295 0
-295 296 297 0
-295 520 534 0
-295 520 297 0
-295 534 296 0
295 -520 -296 0
295 -534 -297 0
296 523 -525 0
296 -523 525 0
-296 -523 -525 0
-296 523 525 0
-297 -523 525 0
-297 -521 -525 0
-297 521 523 0
297 521 -523 -525 0
297 -521 523 525 0
298 -518 -299 0
-298 518 0
-298 299 0
299 521 -532 0
299 -521 532 0
-299 -521 -532 0
-299 521 532 0
-300 301 302 0
-300 -301 -302 0
300 -301 302 0
300 301 -302 0
301 -519 298 0
-301 519 0
-301 -298 0
-302 303 308 0
-302 -303 -308 0
302 -303 308 0
302 303 -308 0
-303 304 306 0
-303 -304 -306 0
303 -304 306 0
303 304 -306 0
-304 525 305 0
-304 -525 -305 0
304 -525 305 0
304 525 -305 0
-305 524 526 0
-305 -526 551 0
-305 525 526 0
305 -526 -551 0
305 -524 -525 526 0
-306 521 307 0
-306 -521 -307 0
306 -521 307 0
306 521 -307 0
-307 296 297 0
-307 520 522 0
-307 522 297 0
-307 520 296 0
307 -522 -296 0
307 -520 -297 0
-308 519 309 0
-308 -519 -309 0
308 -519 309 0
308 519 -309 0
-309 299 310 0
-309 518 534 0
-309 534 310 0
-309 518 299 0
309 -534 -299 0
309 -518 -310 0
-310 -521 532 0
-310 -519 -532 0
-310 519 521 0
310 519 -521 -532 0
310 -519 521 532 0
-311 312 322 0
-311 312 323 0
311 -312 0
311 -322 -323 0
312 -313 -320 0
-312 313 0
-312 320 0
-313 314 316 0
-313 316 318 0
-313 314 318 0
313 -316 -318 0
313 -314 -316 0
313 -314 -318 0
-314 525 315 0
-314 -525 -315 0
314 -525 315 0
314 525 -315 0
-315 522 -526 0
-315 525 526 0
-315 520 526 0
315 -522 -526 0
315 -520 -525 526 0
-316 521 317 0
-316 -521 -317 0
316 -521 317 0
316 521 -317 0
-317 296 297 0
-317 518 534 0
-317 534 297 0
-317 518 296 0
317 -534 -296 0
317 -518 -297 0
318 -521 319 0
-318 521 0
-318 -319 0
319 -518 -296 0
-319 518 0
-319 296 0
-320 298 321 0
-320 -298 -321 0
320 -298 321 0
320 298 -321 0
-321 292 294 0
-321 -292 -294 0
321 -292 294 0
321 292 -294 0
-322 313 320 0
-322 -313 -320 0
322 -313 320 0
322 313 -320 0
-323 327 0
-323 324 330 0
-323 324 329 0
323 -324 -327 0
323 -327 -329 -330 0
324 -319 -325 0
-324 319 0
-324 325 0
-325 525 326 0
-325 -525 -326 0
325 -525 326 0
325 525 -326 0
-326 526 534 0
-326 520 -526 0
-326 525 526 0
326 -520 -526 0
326 -525 526 -534 0
-327 318 328 0
-327 -318 -328 0
327 -318 328 0
327 318 -328 0
-328 314 316 0
-328 -314 -316 0
328 -314 316 0
328 314 -316 0
329 518 -525 234 0
-329 -518 0
-329 525 0
-329 -234 0
-330 319 325 0
-330 -319 -325 0
330 -319 325 0
330 319 -325 0
-331 332 353 0
-331 -332 -353 0
331 -332 353 0
331 332 -353 0
-332 333 342 0
-332 -333 -342 0
332 -333 342 0
332 333 -342 0
-333 334 336 0
-333 336 340 0
-333 334 340 0
333 -336 -340 0
333 -334 -336 0
333 -334 -340 0
-334 550 335 0
-334 -550 -335 0
334 -550 335 0
334 550 -335 0
-335 557 560 0
-335 554 -557 0
-335 550 557 0
335 -554 -557 0
335 -550 557 -560 0
-336 561 337 0
-336 -561 -337 0
336 -561 337 0
336 561 -337 0
-337 338 339 0
-337 552 563 0
-337 552 339 0
-337 563 338 0
337 -552 -338 0
337 -563 -339 0
338 550 -559 0
338 -550 559 0
-338 -550 -559 0
-338 550 559 0
-339 -550 -561 0
-339 559 561 0
-339 550 -559 0
339 -550 -559 561 0
339 550 559 -561 0
340 -565 -341 0
-340 565 0
-340 341 0
341 561 -562 0
341 -561 562 0
-341 -561 -562 0
-341 561 562 0
-342 343 344 0
-342 -343 -344 0
342 -343 344 0
342 343 -344 0
343 -564 340 0
-343 564 0
-343 -340 0
-344 345 350 0
-344 -345 -350 0
344 -345 350 0
344 345 -350 0
-345 346 348 0
-345 -346 -348 0
345 -346 348 0
345 346 -348 0
-346 550 347 0
-346 -550 -347 0
346 -550 347 0
346 550 -347 0
-347 550 557 0
-347 -557 558 0
-347 554 557 0
347 -557 -558 0
347 -550 -554 557 0
-348 561 349 0
-348 -561 -349 0
348 -561 349 0
348 561 -349 0
-349 338 339 0
-349 552 560 0
-349 560 339 0
-349 552 338 0
349 -560 -338 0
349 -552 -339 0
-350 564 351 0
-350 -564 -351 0
350 -564 351 0
350 564 -351 0
-351 341 352 0
-351 563 565 0
-351 563 352 0
-351 565 341 0
351 -563 -341 0
351 -565 -352 0
-352 -561 -564 0
-352 562 564 0
-352 561 -562 0
352 -561 -562 564 0
352 561 562 -564 0
-353 354 363 0
-353 354 364 0
353 -354 0
353 -363 -364 0
354 -355 -361 0
-354 355 0
-354 361 0
-355 561 356 0
-355 356 358 0
-355 561 358 0
-355 358 -360 0
-355 356 -360 0
355 -356 -358 0
355 -561 -356 360 0
355 -561 -358 360 0
-356 550 357 0
-356 -550 -357 0
356 -550 357 0
356 550 -357 0
-357 550 557 0
-357 -557 560 0
-357 552 557 0
357 -557 -560 0
357 -550 -552 557 0
-358 561 359 0
-358 -561 -359 0
358 -561 359 0
358 561 -359 0
-359 338 339 0
-359 563 565 0
-359 563 339 0
-359 565 338 0
359 -563 -338 0
359 -565 -339 0
360 -565 -338 0
-360 565 0
-360 338 0
-361 340 362 0
-361 -340 -362 0
361 -340 362 0
361 340 -362 0
-362 334 336 0
-362 -334 -336 0
362 -334 336 0
362 334 -336 0
-363 355 361 0
-363 -355 -361 0
363 -355 361 0
363 355 -361 0
-364 365 0
-364 368 372 0
-364 368 371 0
364 -365 -368 0
364 -365 -371 -372 0
-365 366 367 0
-365 -366 -367 0
365 -366 367 0
365 366 -367 0
366 -561 360 0
-366 561 0
-366 -360 0
-367 356 358 0
-367 -356 -358 0
367 -356 358 0
367 356 -358 0
368 -360 -369 0
-368 360 0
-368 369 0
-369 550 370 0
-369 -550 -370 0
369 -550 370 0
369 550 -370 0
-370 557 563 0
-370 552 -557 0
-370 550 557 0
370 -552 -557 0
370 -550 557 -563 0
371 -550 565 158 0
-371 550 0
-371 -158 0
-371 -565 0
-372 360 369 0
-372 -360 -369 0
372 -360 369 0
372 360 -369 0
-373 374 395 0
-373 -374 -395 0
373 -374 395 0
373 374 -395 0
-374 375 384 0
-374 -375 -384 0
374 -375 384 0
374 375 -384 0
-375 376 378 0
-375 378 382 0
-375 376 382 0
375 -378 -382 0
375 -376 -378 0
375 -376 -382 0
-376 544 377 0
-376 -544 -377 0
376 -544 377 0
376 544 -377 0
-377 -531 542 0
-377 531 541 0
-377 531 544 0
377 -531 -542 0
377 531 -541 -544 0
-378 543 379 0
-378 -543 -379 0
378 -543 379 0
378 543 -379 0
-379 380 381 0
-379 548 549 0
-379 548 381 0
-379 549 380 0
379 -548 -380 0
379 -549 -381 0
380 537 -544 0
380 -537 544 0
-380 -537 -544 0
-380 537 544 0
-381 -537 -543 0
-381 543 544 0
-381 537 -544 0
381 537 -543 544 0
381 -537 543 -544 0
382 -529 -383 0
-382 529 0
-382 383 0
383 540 -543 0
383 -540 543 0
-383 -540 -543 0
-383 540 543 0
-384 385 386 0
-384 -385 -386 0
384 -385 386 0
384 385 -386 0
385 -539 382 0
-385 539 0
-385 -382 0
-386 387 392 0
-386 -387 -392 0
386 -387 392 0
386 387 -392 0
-387 388 390 0
-387 -388 -390 0
387 -388 390 0
387 388 -390 0
-388 544 389 0
-388 -544 -389 0
388 -544 389 0
388 544 -389 0
-389 -531 573 0
-389 531 544 0
-389 531 542 0
389 -531 -573 0
389 531 -542 -544 0
-390 543 391 0
-390 -543 -391 0
390 -543 391 0
390 543 -391 0
-391 380 381 0
-391 541 548 0
-391 541 381 0
-391 548 380 0
391 -541 -380 0
391 -548 -381 0
-392 539 393 0
-392 -539 -393 0
392 -539 393 0
392 539 -393 0
-393 383 394 0
-393 529 549 0
-393 549 394 0
-393 529 383 0
393 -549 -383 0
393 -529 -394 0
-394 -540 543 0
-394 -539 -543 0
-394 539 540 0
394 539 -540 -543 0
394 -539 540 543 0
-395 396 406 0
-395 396 407 0
395 -396 0
395 -406 -407 0
396 -397 -404 0
-396 397 0
-396 404 0
-397 398 400 0
-397 400 402 0
-397 398 402 0
397 -400 -402 0
397 -398 -400 0
397 -398 -402 0
-398 544 399 0
-398 -544 -399 0
398 -544 399 0
398 544 -399 0
-399 531 544 0
-399 -531 541 0
-399 531 548 0
399 -531 -541 0
399 531 -544 -548 0
-400 543 401 0
-400 -543 -401 0
400 -543 401 0
400 543 -401 0
-401 380 381 0
-401 529 549 0
-401 549 381 0
-401 529 380 0
401 -549 -380 0
401 -529 -381 0
402 -543 403 0
-402 543 0
-402 -403 0
403 -529 -380 0
-403 529 0
-403 380 0
-404 382 405 0
-404 -382 -405 0
404 -382 405 0
404 382 -405 0
-405 376 378 0
-405 -376 -378 0
405 -376 378 0
405 376 -378 0
-406 397 404 0
-406 -397 -404 0
406 -397 404 0
406 397 -404 0
-407 408 0
-407 410 414 0
-407 410 413 0
407 -408 -410 0
407 -408 -413 -414 0
-408 402 409 0
-408 -402 -409 0
408 -402 409 0
408 402 -409 0
-409 398 400 0
-409 -398 -400 0
409 -398 400 0
409 398 -400 0
410 -403 -411 0
-410 403 0
-410 411 0
-411 544 412 0
-411 -544 -412 0
411 -544 412 0
411 544 -412 0
-412 -531 548 0
-412 531 544 0
-412 531 549 0
412 -531 -548 0
412 531 -544 -549 0
413 529 -544 80 0
-413 -529 0
-413 544 0
-413 -80 0
-414 403 411 0
-414 -403 -411 0
414 -403 411 0
414 403 -411 0
-415 416 451 0
-415 -416 -451 0
415 -416 451 0
415 416 -451 0
-416 417 434 0
-416 -417 -434 0
416 -417 434 0
416 417 -434 0
-417 418 432 0
-417 -418 -432 0
417 -418 432 0
417 418 -432 0
-418 419 420 0
-418 -419 -420 0
418 -419 420 0
418 419 -420 0
419 -301 -302 0
-419 301 0
-419 302 0
-420 421 424 0
-420 -421 -424 0
420 -421 424 0
420 421 -424 0
-421 422 423 0
-421 -422 -423 0
421 -422 423 0
421 422 -423 0
422 -518 519 -568 0
422 -518 -519 568 0
-422 518 0
-422 -519 -568 0
-422 519 568 0
-423 304 306 0
-423 306 308 0
-423 304 308 0
423 -304 -308 0
423 -306 -308 0
423 -304 -306 0
-424 425 430 0
-424 -425 -430 0
424 -425 430 0
424 425 -430 0
-425 426 428 0
-425 -426 -428 0
425 -426 428 0
425 426 -428 0
-426 525 427 0
-426 -525 -427 0
426 -525 427 0
426 525 -427 0
-427 526 551 0
-427 -526 527 0
-427 525 526 0
427 -526 -527 0
427 -525 526 -551 0
-428 521 429 0
-428 -521 -429 0
428 -521 429 0
428 521 -429 0
-429 296 297 0
-429 522 524 0
-429 524 297 0
-429 522 296 0
429 -524 -296 0
429 -522 -297 0
-430 519 431 0
-430 -519 -431 0
430 -519 431 0
430 519 -431 0
-431 299 310 0
-431 520 534 0
-431 520 310 0
-431 534 299 0
431 -520 -299 0
431 -534 -310 0
-432 290 433 0
-432 322 433 0
-432 323 433 0
432 -433 0
432 -290 -322 -323 0
-433 300 290 0
-433 291 312 0
-433 291 290 0
-433 300 312 0
433 -290 -312 0
433 -291 -300 0
-434 435 449 0
-434 -435 -449 0
434 -435 449 0
434 435 -449 0
-435 436 437 0
-435 -436 -437 0
435 -436 437 0
435 436 -437 0
436 -343 -344 0
-436 343 0
-436 344 0
-437 438 441 0
-437 -438 -441 0
437 -438 441 0
437 438 -441 0
-438 439 440 0
-438 -439 -440 0
438 -439 440 0
438 439 -440 0
439 564 -565 -566 0
439 -564 -565 566 0
-439 565 0
-439 -564 -566 0
-439 564 566 0
-440 346 348 0
-440 348 350 0
-440 346 350 0
440 -346 -350 0
440 -348 -350 0
440 -346 -348 0
-441 442 447 0
-441 -442 -447 0
441 -442 447 0
441 442 -447 0
-442 443 445 0
-442 -443 -445 0
442 -443 445 0
442 443 -445 0
-443 550 444 0
-443 -550 -444 0
443 -550 444 0
443 550 -444 0
-444 557 558 0
-444 -557 571 0
-444 550 557 0
444 -557 -571 0
444 -550 557 -558 0
-445 561 446 0
-445 -561 -446 0
445 -561 446 0
445 561 -446 0
-446 338 339 0
-446 554 560 0
-446 554 339 0
-446 560 338 0
446 -554 -338 0
446 -560 -339 0
-447 564 448 0
-447 -564 -448 0
447 -564 448 0
447 564 -448 0
-448 341 352 0
-448 552 563 0
-448 552 352 0
-448 563 341 0
448 -552 -341 0
448 -563 -352 0
-449 332 450 0
-449 363 450 0
-449 364 450 0
449 -450 0
449 -332 -363 -364 0
-450 333 342 0
-450 342 354 0
-450 333 354 0
450 -342 -354 0
450 -333 -342 0
450 -333 -354 0
-451 452 466 0
-451 -452 -466 0
451 -452 466 0
451 452 -466 0
-452 453 454 0
-452 -453 -454 0
452 -453 454 0
452 453 -454 0
453 -385 -386 0
-453 385 0
-453 386 0
-454 455 458 0
-454 -455 -458 0
454 -455 458 0
454 455 -458 0
-455 456 457 0
-455 -456 -457 0
455 -456 457 0
455 456 -457 0
456 -529 539 -545 0
456 -529 -539 545 0
-456 529 0
-456 -539 -545 0
-456 539 545 0
-457 388 390 0
-457 390 392 0
-457 388 392 0
457 -388 -392 0
457 -390 -392 0
457 -388 -390 0
-458 459 464 0
-458 -459 -464 0
458 -459 464 0
458 459 -464 0
-459 460 462 0
-459 -460 -462 0
459 -460 462 0
459 460 -462 0
-460 544 461 0
-460 -544 -461 0
460 -544 461 0
460 544 -461 0
-461 531 544 0
-461 -531 535 0
-461 531 573 0
461 -531 -535 0
461 531 -544 -573 0
-462 543 463 0
-462 -543 -463 0
462 -543 463 0
462 543 -463 0
-463 380 381 0
-463 541 542 0
-463 542 381 0
-463 541 380 0
463 -542 -380 0
463 -541 -381 0
-464 539 465 0
-464 -539 -465 0
464 -539 465 0
464 539 -465 0
-465 383 394 0
-465 548 549 0
-465 548 394 0
-465 549 383 0
465 -548 -383 0
465 -549 -394 0
-466 374 467 0
-466 406 467 0
-466 407 467 0
466 -467 0
466 -374 -406 -407 0
-467 384 374 0
-467 375 396 0
-467 375 374 0
-467 384 396 0
467 -374 -396 0
467 -375 -384 0
-468 469 474 485 0
-468 469 476 485 0
-468 474 476 485 0
468 -474 -476 0
468 -469 -474 0
468 -485 0
468 -469 -476 0
-469 471 472 0
-469 470 473 0
-469 470 472 0
-469 471 473 0
469 -472 -473 0
469 -470 -471 0
-470 322 323 0
-470 -322 -323 0
470 -322 323 0
470 322 -323 0
-471 363 364 0
-471 -363 -364 0
471 -363 364 0
471 363 -364 0
-472 406 407 0
-472 -406 -407 0
472 -406 407 0
472 406 -407 0
-473 470 471 0
-473 -470 -471 0
473 -470 471 0
473 470 -471 0
-474 373 475 0
-474 -373 -475 0
474 -373 475 0
474 373 -475 0
-475 289 331 0
-475 -289 -331 0
475 -289 331 0
475 289 -331 0
476 -477 -484 0
-476 477 0
-476 484 0
-477 478 480 0
-477 480 482 0
-477 478 482 0
477 -478 -482 0
477 -480 -482 0
477 -478 -480 0
-478 327 479 0
-478 -327 -479 0
478 -327 479 0
478 327 -479 0
-479 324 329 0
-479 324 330 0
479 -324 0
479 -329 -330 0
-480 365 481 0
-480 -365 -481 0
480 -365 481 0
480 365 -481 0
-481 368 371 0
-481 368 372 0
481 -368 0
481 -371 -372 0
-482 408 483 0
-482 -408 -483 0
482 -408 483 0
482 408 -483 0
-483 410 413 0
-483 410 414 0
483 -410 0
483 -413 -414 0
-484 472 473 0
-484 -472 -473 0
484 -472 473 0
484 472 -473 0
485 -486 -477 484 -487 0
485 -486 477 -484 -487 0
-485 487 0
-485 477 484 0
-485 486 0
-485 -477 -484 0
-486 469 474 0
-486 -469 -474 0
486 -469 474 0
486 469 -474 0
-487 488 492 510 0
-487 488 494 510 0
-487 492 494 510 0
487 -492 -494 0
487 -488 -492 0
487 -510 0
487 -488 -494 0
-488 489 490 0
-488 490 491 0
-488 489 491 0
488 -489 -491 0
488 -490 -491 0
488 -489 -490 0
-489 329 330 0
-489 -329 -330 0
489 -329 330 0
489 329 -330 0
-490 371 372 0
-490 -371 -372 0
490 -371 372 0
490 371 -372 0
-491 413 414 0
-491 -413 -414 0
491 -413 414 0
491 413 -414 0
-492 482 493 0
-492 -482 -493 0
492 -482 493 0
492 482 -493 0
-493 478 480 0
-493 -478 -480 0
493 -478 480 0
493 478 -480 0
494 -495 -508 0
-494 495 0
-494 508 0
-495 496 500 0
-495 500 504 0
-495 496 504 0
495 -496 -504 0
495 -500 -504 0
495 -496 -500 0
-496 -497 -499 0
-496 497 499 0
496 497 -499 0
496 -497 499 0
-497 525 498 0
-497 -525 -498 0
497 -525 498 0
497 525 -498 0
-498 518 526 0
-498 -526 534 0
-498 525 526 0
498 -526 -534 0
498 -518 -525 526 0
499 -525 259 0
-499 525 0
-499 -259 0
-500 -501 -503 0
-500 501 503 0
500 501 -503 0
500 -501 503 0
-501 550 502 0
-501 -550 -502 0
501 -550 502 0
501 550 -502 0
-502 557 565 0
-502 -557 563 0
-502 550 557 0
502 -557 -563 0
502 -550 557 -565 0
503 -550 258 0
-503 550 0
-503 -258 0
-504 -505 -507 0
-504 505 507 0
504 505 -507 0
504 -505 507 0
-505 544 506 0
-505 -544 -506 0
505 -544 506 0
505 544 -506 0
-506 531 544 0
-506 -531 549 0
-506 529 531 0
506 -531 -549 0
506 -529 531 -544 0
507 -544 285 0
-507 544 0
-507 -285 0
-508 491 509 0
-508 -491 -509 0
508 -491 509 0
508 491 -509 0
-509 489 490 0
-509 -489 -490 0
509 -489 490 0
509 489 -490 0
510 -511 495 -508 -512 0
510 -511 -495 508 -512 0
-510 512 0
-510 495 508 0
-510 511 0
-510 -495 -508 0
-511 488 492 0
-511 -488 -492 0
511 -488 492 0
511 488 -492 0
512 -258 -285 -513 0
512 -258 -259 -513 0
512 -259 -285 -513 0
-512 258 285 0
-512 259 285 0
-512 513 0
-512 258 259 0
-513 504 514 0
-513 -504 -514 0
513 -504 514 0
513 504 -514 0
-514 496 500 0
-514 -496 -500 0
514 -496 500 0
514 496 -500 0
-575 0
2 0

